W=9;
H=7;

MAX_TIME=25;
MAX_TRACKS=15;

TARGET=(2,9);
  
TRAINS=[(7,4,TOP),(7,6,TOP)];
DECOYS=[];

INIT_POS=[
(2,3,CORNER_DL),
(2,5,CORNER_TR),
(2,6,STRAIGHT_RL),
(2,7,STRAIGHT_RL),
(2,8,STRAIGHT_RL),
(2,9,STRAIGHT_RL),
(5,3,CORNER_TL),
(5,5,STRAIGHT_RL),
(5,8,DSWITCH_L_R_D),
(7,4,STRAIGHT_TD),
(7,6,STRAIGHT_TD),
];
TUNNEL_PAIRS=[
  (2, 1, RIGHT, 5, 1, RIGHT),
  (1, 5, DOWN, 5, 9, LEFT),
];

GATES=[
(2,7,2,false),
];
ACTIVATIONS=[
(2,3,2),
(5,3,1),
(5,5,1),
];

DSWITCHES=[
(5,8,1),
];
STATIONS=[];
